50
120
100
99
97
97
96
96
95
92
92
90
90
88
87
87
85
84
83
82
81
79
74
68
68
63
59
58
56
55
55
51
50
49
49
49
47
44
44
42
39
37
37
34
34
34
33
33
31
30
30
30
